0001 5
0002 5
0003 2
0004 11
0005 13
0006 13
0007 13
0008 13
0009 3
0010 3
0011 3
0012 9
0013 3
0014 3
0015 3
0016 3
0017 1
0018 2
0019 6
0020 2
0021 2
0022 1
0023 1
0024 6
0025 6
0026 2
0027 3
0028 4
0029 4
0030 12
0031 1
0032 1
0033 1
0034 12
0035 11
0036 12
0037 12
0038 5
0039 1
0040 2
0041 1
0042 1
0043 6
0044 6
0045 1
0046 10
0047 10
0048 2
0049 4
0050 11
0051 10
0052 12
0053 11
0054 11
0055 12
0056 11
0057 11
0058 2
0059 13
0060 1
0061 10
0062 6
0063 2
0064 10
0065 2
0066 2
0067 6
0068 2
0069 2
0070 2
0071 4
0072 4
0073 1
0074 1
0075 1
0076 1
0077 10
0078 11
0079 11
0080 12
0081 1
0082 10
0083 1
0084 1
0085 10
0086 10
0087 13
0088 6
0089 13
0090 13
0091 2
0092 10
0093 1
0094 13
0095 8
0096 8
0097 7
0098 8
0099 8
0100 8
0101 8
0102 8
0103 10
0104 10
0105 6
0106 6
0107 12
0108 12
0109 12
0110 12
0111 12
0112 1
0113 12
0114 10
0115 3
0116 10
0117 1
0118 10
0119 10
0120 13
0121 6
0122 10
0123 13
0124 10
0125 10
0126 13
0127 13
0128 13
0129 1
0130 9
0131 4
0132 6
0133 7
0134 7
0135 13
0136 9
0137 3
0138 8
0139 5
